1571936
15,57,81,66,45,22,18,11,24,77,72,21,23,64,51,13,39,50,28,16,25,93,78,83,91,94,75,35,12,73,0,8,32,69,47,31,56,46,29,59,30,61,86,37,36,79,67,98,49,87,44,85,14,82,4,2,63,1,26,27,10,97,53,33,70,89,58,42,80,38,6,65,3,62,20,19,55,9,68,5,40,74,17,48,92,54,76,95,71,84,88,7,90,43,52,34,96,96,60
